20
2 0 9
4 0 8
5 1 9
6 2 14
6 5 3
7 0 8
8 0 7
8 1 5
8 3 13
9 2 12
9 8 2
10 1 6
10 3 2
11 2 10
11 3 14
12 3 4
13 3 17
13 5 14
13 8 5
13 10 13
14 2 2
14 3 2
14 8 13
14 10 6
14 13 2
15 0 11
15 6 7
15 11 7
15 12 10
16 1 3
16 2 6
16 11 9
16 14 16
17 1 10
17 3 8
17 5 16
18 9 19
18 13 3
19 0 15
19 3 10
19 8 6
19 15 1
